62.11 57.22
26.69 81.72
98.94 89.41
36.07 16.53
99.77 22.83
61.48 50.26
37.84 59.32
44.57 71.13
45.19 76.97
61.73 68.87
47.72 85.44
72.34 13.02
65.73 87.15
81.69 32.18
88.51 95.58
49.74 33.01
92.35 17.34
29.92 95.13
37.24 30.62
62.09 15.65
47.52 23.58
73.90 97.62
91.58 59.39
59.78 82.73
60.62 81.83
53.59 19.89
38.12 16.41
50.17 25.79
86.30 89.15
94.75 59.48
40.81 44.88
93.92 91.71
47.63 28.83
31.77 34.51
92.44 64.80
67.19 13.60
79.51 56.61
44.28 34.07
99.92 71.92
92.61 39.83
92.63 28.97
40.75 92.43
77.47 43.13
97.26 47.68
76.33 27.14
80.62 55.17
61.88 72.90
64.55 27.44
